(declare-fun bvlambda_52_ ()Bool         )
(declare-fun a112 () (Array (_ BitVec 1) (_ BitVec 9)))
(assert
(let (($e1 (_ bv0 1)))
(let (($e12 (_ bv42 16)))
(let (($e22 (_ bv42 8)))
(let (($e121                           #b1     ))
(let (($e124 (concat $e22 $e1  )))
(let (($e125 (store a112 bvlambda_52_ $e124)))
(let (($e126 (select $e125 $e121)))
(let (($e765         $e1                       ))
(let (($e779      (bvult $e126 $e124)         ))
(let (($e786                      (bvnot $e779) ))
(let (($e840 (store a112 $e1 $e124)))
(let (($e841 (select $e840 $e786       )))
(let (($e843 (concat        $e12  $e841)))
(let (($e854 ((_ extract 10 3) $e843)))
(let (($e855      (= $e22 $e854)         ))
(let (($e877      (= $e855 $e786)         ))
                    (bvnot $e877)
                                                                                                                                                                                                                                                                                                                                                                    )                     ))          ) ))                                                     )      )             )                                                                                                                                                                                                                                                                                                                                                                                                                                                                                                                                                                                                                                                              )))  )                           )         )          ))
